27	3	3
5	5	6	53	22	22	
0	0	0	0	6	5	10	7	5	4	25	2	3	4	5	6	7	8	9	10	11	12	13	14	15	16	17	18	19	20	21	22	23	24	25	26
3	0	0	3	7	3	3	8	4	7	5	27	15	10	14	18
2	1	0	3	9	7	2	8	6	3	3	27	22	11
2	0	0	3	8	4	4	2	7	9	4	27	9	24	22
4	2	2	3	1	3	10	3	2	1	5	27	25	8	21	14
5	0	2	1	7	8	6	7	5	10	7	27	23	11	18	13	21	17
5	2	1	3	10	1	3	3	9	7	4	27	14	11	25
5	0	1	1	10	8	4	2	5	9	4	27	13	23	22
5	2	2	3	5	2	3	8	4	9	3	27	12	15
3	1	1	0	6	4	2	6	7	4	3	27	11	19
3	0	0	1	7	4	1	2	10	5	1	27
4	1	0	3	2	9	6	4	2	4	5	27	22	20	18	15
3	2	1	3	10	2	1	3	3	6	2	27	16
5	1	2	3	2	8	8	5	5	1	3	27	19	24
1	0	0	2	4	1	4	5	7	1	3	27	18	21
3	2	0	0	8	3	4	9	5	3	1	27
4	2	1	1	4	6	2	10	9	4	2	27	19
3	1	1	0	4	9	5	5	1	8	3	27	22	21
1	2	0	2	10	3	5	7	7	10	2	27	25
2	0	2	1	7	10	1	1	5	7	2	27	24
5	0	2	2	2	3	10	5	2	5	1	27
2	2	2	3	8	5	10	10	5	9	1	27
5	0	2	1	3	8	8	7	2	8	1	27
3	0	0	3	5	2	1	10	8	7	1	27
5	2	1	2	9	5	7	10	6	2	1	27
4	1	0	3	7	7	4	6	2	5	1	27
0	0	0	0	1	10	10	10	9	4	0
